80
1625
5
23
43
91
70
36
0 1
0 4
0 5
0 8
0 11
0 12
0 17
0 20
0 21
0 23
0 25
0 27
0 34
0 35
0 36
0 38
0 39
0 40
0 41
0 45
0 46
0 47
0 48
0 49
0 50
0 51
0 53
0 54
0 55
0 57
0 58
0 60
0 62
0 65
0 66
0 67
0 72
0 73
0 74
0 75
0 78
0 79
1 2
1 7
1 9
1 12
1 16
1 17
1 22
1 23
1 24
1 26
1 28
1 29
1 30
1 31
1 32
1 33
1 34
1 35
1 36
1 37
1 38
1 39
1 42
1 43
1 45
1 49
1 50
1 52
1 53
1 54
1 57
1 58
1 61
1 62
1 63
1 64
1 65
1 67
1 68
1 69
1 76
1 79
2 4
2 7
2 9
2 10
2 11
2 12
2 13
2 17
2 18
2 21
2 24
2 26
2 27
2 28
2 30
2 31
2 33
2 34
2 35
2 36
2 37
2 38
2 39
2 40
2 42
2 43
2 45
2 48
2 49
2 50
2 52
2 60
2 65
2 66
2 67
2 68
2 69
2 71
2 72
2 73
2 76
2 77
3 5
3 6
3 7
3 13
3 15
3 18
3 19
3 20
3 28
3 29
3 30
3 32
3 37
3 40
3 42
3 43
3 46
3 47
3 48
3 51
3 52
3 61
3 62
3 63
3 68
3 69
3 72
3 74
3 75
4 8
4 9
4 11
4 12
4 14
4 15
4 16
4 17
4 18
4 21
4 23
4 24
4 25
4 26
4 27
4 28
4 29
4 31
4 33
4 34
4 35
4 37
4 40
4 44
4 45
4 46
4 48
4 49
4 54
4 55
4 56
4 59
4 60
4 63
4 64
4 66
4 68
4 69
4 72
4 73
4 74
4 75
5 6
5 10
5 11
5 12
5 13
5 14
5 15
5 16
5 19
5 22
5 23
5 28
5 30
5 31
5 32
5 34
5 37
5 41
5 44
5 45
5 51
5 52
5 55
5 57
5 63
5 65
5 66
5 72
5 73
5 74
5 77
5 79
6 7
6 8
6 14
6 15
6 17
6 18
6 21
6 23
6 24
6 25
6 26
6 27
6 29
6 31
6 33
6 34
6 35
6 36
6 39
6 40
6 42
6 46
6 49
6 52
6 53
6 54
6 55
6 56
6 58
6 59
6 61
6 65
6 68
6 72
6 73
6 74
6 76
6 79
7 8
7 9
7 10
7 12
7 14
7 17
7 21
7 22
7 24
7 25
7 27
7 29
7 30
7 31
7 32
7 34
7 35
7 36
7 40
7 41
7 42
7 44
7 46
7 49
7 50
7 51
7 54
7 55
7 56
7 57
7 60
7 61
7 63
7 66
7 69
7 70
7 72
7 73
7 75
7 78
7 79
8 11
8 12
8 13
8 14
8 16
8 17
8 18
8 19
8 21
8 24
8 25
8 26
8 27
8 29
8 31
8 33
8 36
8 37
8 38
8 40
8 43
8 46
8 52
8 54
8 56
8 58
8 61
8 62
8 64
8 65
8 67
8 68
8 70
8 72
8 73
9 10
9 13
9 14
9 15
9 16
9 18
9 19
9 20
9 21
9 23
9 24
9 25
9 28
9 29
9 30
9 31
9 35
9 39
9 41
9 44
9 45
9 46
9 47
9 49
9 51
9 53
9 54
9 55
9 57
9 58
9 59
9 61
9 63
9 65
9 66
9 69
9 70
9 71
9 74
10 11
10 15
10 16
10 17
10 19
10 20
10 22
10 25
10 29
10 30
10 32
10 38
10 39
10 41
10 42
10 43
10 45
10 47
10 48
10 49
10 50
10 52
10 58
10 60
10 61
10 63
10 64
10 66
10 67
10 68
10 70
10 74
10 76
10 78
10 79
11 15
11 16
11 18
11 19
11 26
11 27
11 29
11 31
11 32
11 35
11 38
11 39
11 40
11 42
11 43
11 46
11 49
11 58
11 59
11 60
11 62
11 63
11 64
11 66
11 73
11 74
11 79
12 14
12 18
12 19
12 21
12 22
12 23
12 24
12 25
12 26
12 27
12 28
12 34
12 37
12 38
12 39
12 41
12 43
12 44
12 55
12 59
12 60
12 61
12 64
12 65
12 66
12 67
12 70
12 72
12 76
13 15
13 17
13 21
13 22
13 24
13 25
13 30
13 31
13 32
13 35
13 37
13 39
13 42
13 44
13 45
13 46
13 47
13 48
13 49
13 50
13 51
13 53
13 54
13 56
13 59
13 60
13 62
13 66
13 70
13 71
13 75
13 76
14 16
14 17
14 18
14 19
14 20
14 21
14 23
14 24
14 26
14 27
14 28
14 29
14 31
14 33
14 34
14 36
14 37
14 38
14 39
14 40
14 42
14 43
14 49
14 50
14 51
14 53
14 54
14 55
14 58
14 59
14 61
14 64
14 65
14 66
14 67
14 68
14 69
14 71
14 74
14 77
14 78
14 79
15 20
15 21
15 22
15 25
15 26
15 28
15 33
15 39
15 40
15 41
15 42
15 43
15 44
15 45
15 49
15 50
15 52
15 53
15 55
15 56
15 57
15 58
15 59
15 61
15 64
15 68
15 71
15 72
15 76
15 79
16 17
16 18
16 21
16 23
16 24
16 25
16 26
16 27
16 29
16 30
16 31
16 34
16 35
16 39
16 40
16 41
16 42
16 45
16 46
16 47
16 49
16 50
16 52
16 55
16 57
16 60
16 61
16 62
16 64
16 65
16 66
16 68
16 71
16 72
16 73
16 77
16 78
16 79
17 21
17 22
17 24
17 26
17 27
17 28
17 30
17 33
17 34
17 35
17 39
17 41
17 44
17 45
17 46
17 50
17 51
17 57
17 58
17 59
17 60
17 61
17 62
17 64
17 65
17 68
17 69
17 73
17 75
17 76
17 77
17 78
17 79
18 19
18 20
18 22
18 24
18 25
18 26
18 28
18 29
18 30
18 32
18 36
18 37
18 38
18 39
18 40
18 41
18 42
18 43
18 44
18 49
18 50
18 51
18 52
18 53
18 54
18 55
18 59
18 62
18 65
18 68
18 70
18 71
18 72
18 74
18 77
19 20
19 21
19 25
19 31
19 38
19 39
19 42
19 44
19 45
19 46
19 47
19 49
19 50
19 51
19 52
19 54
19 57
19 58
19 59
19 62
19 63
19 66
19 67
19 69
19 70
19 73
19 74
19 76
19 79
20 21
20 23
20 24
20 25
20 27
20 32
20 34
20 35
20 36
20 37
20 38
20 40
20 42
20 43
20 45
20 47
20 48
20 49
20 50
20 53
20 54
20 58
20 59
20 60
20 64
20 66
20 67
20 71
20 73
20 76
20 77
20 78
20 79
21 22
21 23
21 24
21 27
21 28
21 29
21 30
21 33
21 34
21 35
21 36
21 38
21 40
21 42
21 44
21 45
21 48
21 50
21 52
21 54
21 55
21 62
21 63
21 66
21 69
21 70
21 71
21 72
21 74
21 75
21 77
21 78
22 26
22 29
22 31
22 37
22 39
22 43
22 44
22 49
22 50
22 52
22 53
22 55
22 57
22 58
22 59
22 63
22 65
22 66
22 67
22 73
22 74
22 75
22 76
22 77
22 78
23 24
23 26
23 28
23 31
23 32
23 34
23 36
23 37
23 38
23 40
23 42
23 44
23 48
23 49
23 51
23 53
23 55
23 57
23 58
23 59
23 60
23 61
23 63
23 65
23 70
23 71
23 73
23 74
23 79
24 25
24 27
24 31
24 35
24 40
24 41
24 44
24 45
24 46
24 47
24 48
24 49
24 50
24 51
24 52
24 53
24 54
24 57
24 58
24 62
24 63
24 65
24 66
24 67
24 71
24 74
24 77
24 78
24 79
25 27
25 29
25 31
25 32
25 33
25 34
25 36
25 37
25 38
25 39
25 41
25 42
25 43
25 44
25 45
25 46
25 47
25 49
25 50
25 51
25 52
25 55
25 57
25 61
25 62
25 63
25 64
25 67
25 68
25 72
25 74
25 75
25 76
25 77
25 78
26 30
26 32
26 33
26 37
26 40
26 42
26 43
26 44
26 45
26 46
26 47
26 50
26 55
26 57
26 58
26 59
26 60
26 62
26 64
26 65
26 66
26 67
26 69
26 70
26 71
26 72
26 74
26 76
26 77
26 79
27 28
27 29
27 30
27 34
27 35
27 36
27 37
27 38
27 41
27 42
27 43
27 44
27 46
27 47
27 48
27 49
27 50
27 55
27 56
27 57
27 58
27 61
27 62
27 63
27 66
27 68
27 69
27 70
27 72
27 73
27 75
27 78
28 29
28 30
28 33
28 34
28 38
28 40
28 43
28 44
28 47
28 50
28 52
28 53
28 56
28 60
28 64
28 65
28 68
28 69
28 70
28 73
28 74
28 76
28 79
29 34
29 36
29 39
29 40
29 43
29 44
29 45
29 46
29 47
29 48
29 50
29 53
29 54
29 57
29 58
29 59
29 62
29 63
29 64
29 65
29 67
29 68
29 70
29 72
29 74
29 75
29 76
30 33
30 36
30 37
30 38
30 40
30 42
30 44
30 48
30 49
30 51
30 53
30 55
30 56
30 58
30 61
30 63
30 64
30 65
30 67
30 69
30 70
30 72
30 74
30 77
30 78
31 32
31 34
31 35
31 38
31 41
31 42
31 47
31 50
31 54
31 56
31 57
31 62
31 63
31 66
31 67
31 69
31 71
31 72
31 73
31 74
31 76
31 77
31 78
31 79
32 35
32 36
32 40
32 41
32 42
32 43
32 45
32 46
32 48
32 49
32 50
32 53
32 54
32 55
32 57
32 58
32 59
32 60
32 61
32 62
32 64
32 67
32 68
32 72
32 75
32 76
32 77
33 35
33 36
33 38
33 39
33 42
33 47
33 49
33 53
33 55
33 58
33 60
33 61
33 62
33 66
33 74
33 76
34 35
34 36
34 37
34 38
34 39
34 40
34 41
34 43
34 47
34 48
34 50
34 54
34 55
34 56
34 57
34 61
34 63
34 65
34 66
34 67
34 69
34 71
34 72
34 74
34 75
34 78
35 42
35 43
35 45
35 48
35 49
35 50
35 51
35 53
35 55
35 56
35 58
35 59
35 60
35 64
35 65
35 67
35 68
35 69
35 72
35 74
35 75
35 76
35 77
35 78
36 38
36 40
36 44
36 49
36 55
36 56
36 57
36 61
36 67
36 70
36 71
36 72
36 73
36 75
36 76
36 77
36 79
37 38
37 40
37 42
37 46
37 48
37 56
37 57
37 59
37 60
37 61
37 62
37 63
37 65
37 66
37 73
37 74
37 76
37 79
38 39
38 44
38 46
38 47
38 48
38 49
38 51
38 56
38 60
38 62
38 63
38 64
38 66
38 68
38 69
38 71
38 76
38 78
38 79
39 43
39 44
39 45
39 47
39 49
39 51
39 53
39 54
39 56
39 58
39 64
39 66
39 67
39 69
39 73
39 74
39 75
39 79
40 41
40 44
40 46
40 47
40 49
40 50
40 57
40 60
40 61
40 63
40 66
40 69
40 73
40 75
40 76
40 77
40 79
41 45
41 46
41 47
41 49
41 51
41 53
41 54
41 56
41 58
41 60
41 62
41 63
41 64
41 69
41 71
41 72
41 75
41 79
42 44
42 47
42 49
42 50
42 52
42 56
42 57
42 58
42 59
42 60
42 62
42 63
42 64
42 66
42 68
42 69
42 70
42 71
42 74
42 76
42 77
42 78
42 79
43 46
43 47
43 50
43 51
43 55
43 59
43 62
43 63
43 64
43 65
43 66
43 68
43 69
43 70
43 72
43 74
43 76
43 77
43 78
43 79
44 46
44 48
44 49
44 51
44 53
44 54
44 56
44 57
44 58
44 59
44 60
44 61
44 62
44 67
44 70
44 72
44 74
44 76
44 79
45 46
45 47
45 48
45 49
45 51
45 53
45 56
45 57
45 58
45 59
45 62
45 63
45 66
45 68
45 69
45 70
45 71
45 73
45 75
45 77
45 78
45 79
46 47
46 48
46 51
46 52
46 56
46 57
46 58
46 59
46 60
46 65
46 66
46 67
46 68
46 70
46 71
46 72
46 73
46 75
46 79
47 48
47 49
47 50
47 52
47 60
47 61
47 68
47 69
47 71
47 72
47 74
47 75
47 76
47 77
47 79
48 50
48 51
48 52
48 53
48 56
48 59
48 61
48 63
48 64
48 65
48 67
48 71
48 73
48 74
48 76
48 79
49 50
49 52
49 53
49 54
49 56
49 58
49 61
49 65
49 66
49 68
49 69
49 70
49 72
49 73
49 74
49 76
49 77
49 79
50 56
50 57
50 58
50 59
50 60
50 61
50 64
50 68
50 69
50 70
50 71
50 72
50 77
50 79
51 56
51 57
51 58
51 59
51 61
51 66
51 67
51 70
51 72
51 73
51 75
51 76
51 78
52 53
52 54
52 57
52 58
52 59
52 60
52 63
52 64
52 68
52 69
52 70
52 71
52 72
52 74
52 75
52 76
53 54
53 55
53 58
53 59
53 61
53 67
53 68
53 69
53 72
53 73
53 74
53 75
53 76
53 77
54 55
54 56
54 61
54 66
54 70
54 74
54 76
54 78
55 56
55 62
55 63
55 64
55 65
55 68
55 69
55 70
55 74
55 75
55 78
55 79
56 57
56 60
56 66
56 69
56 73
56 74
56 78
56 79
57 63
57 64
57 68
57 69
57 70
57 74
57 75
57 76
57 77
57 79
58 60
58 63
58 65
58 67
58 68
58 69
58 72
58 73
58 74
59 61
59 62
59 64
59 66
59 67
59 70
59 72
59 75
59 77
60 64
60 65
60 66
60 68
60 70
60 75
60 76
60 79
61 62
61 63
61 68
61 69
61 73
61 74
61 77
61 79
62 63
62 64
62 67
62 69
62 70
62 71
62 73
62 77
62 79
63 69
63 71
63 73
63 75
63 76
63 77
63 78
63 79
64 67
64 68
64 71
64 74
64 76
64 77
64 79
65 67
65 68
65 70
65 71
65 73
65 74
65 75
65 78
66 67
66 68
66 71
66 72
66 73
66 74
66 76
66 77
67 68
67 69
67 72
67 73
67 74
67 75
67 77
67 78
67 79
68 69
68 70
68 71
68 72
68 75
68 76
68 77
68 78
69 71
69 75
69 76
70 71
70 72
70 73
70 77
70 78
71 72
71 73
71 74
71 75
71 76
71 77
71 78
72 73
72 74
72 75
72 76
72 77
73 74
73 76
73 79
74 76
74 77
74 78
74 79
75 78
75 79
76 79
77 79
72 61 24 75 65 34 79 14 46 1 8 71 53 69 25 49
45 5 12 17 9 64 54 67 56 73 41 10 29 55 47 7
16 42 59 68 0 2 36 60 31 38 62 51 74 50 13 35
77 30 18 27 76 23 19 33 57 20 39 11 32 78 28 58
15 22 44 6 3 21 43 48 4 37 52 26 63 40 70 66
